(set-logic ALL)
(declare-fun var0 () String)
(assert (str.in_re var0 (re.++ (re.union (re.* (re.union (re.union (re.union (re.* (re.+ (re.+ (re.+ (re.+ (re.union (str.to_re "0") (str.to_re "111"))))))) (re.* (re.* (re.union (re.* (re.union (re.* (str.to_re "222")) (re.* (str.to_re "333")))) (re.* (re.* (re.* (str.to_re "444")))))))) (re.union (re.union (re.+ (re.* (re.* (re.* (re.union (str.to_re "555") (str.to_re "66")))))) (re.+ (re.* (re.+ (re.* (re.union (str.to_re "77") (str.to_re "888"))))))) (re.union (re.union (re.union (re.* (re.union (re.+ (str.to_re "999")) (re.+ (str.to_re "aaa")))) (re.* (re.union (re.* (str.to_re "bbb")) (re.* (str.to_re "cc"))))) (re.union (re.* (re.union (re.* (str.to_re "dd")) (re.* (str.to_re "ee")))) (re.* (re.+ (re.* (str.to_re "ff")))))) (re.union (re.* (re.* (re.* (re.+ (str.to_re "gg"))))) (re.* (re.+ (re.* (re.* (str.to_re "hhh"))))))))) (re.union (re.union (re.* (re.union (re.+ (re.union (re.* (re.* (str.to_re "ii"))) (re.* (re.union (str.to_re "jj") (str.to_re "kkk"))))) (re.+ (re.* (re.* (re.* (str.to_re "l"))))))) (re.* (re.+ (re.* (re.union (re.union (re.+ (str.to_re "mm")) (re.+ (str.to_re "n"))) (re.union (re.union (str.to_re "o") (str.to_re "ppp")) (re.union (str.to_re "qqq") (str.to_re "rrr")))))))) (re.union (re.* (re.* (re.+ (re.+ (re.+ (re.* (str.to_re "ss"))))))) (re.* (re.* (re.union (re.+ (re.+ (re.union (str.to_re "t") (str.to_re "uu")))) (re.+ (re.* (re.union (str.to_re "vvv") (str.to_re "ww"))))))))))) (re.* (re.* (re.union (re.* (re.* (re.+ (re.union (re.+ (re.* (re.union (str.to_re "xx") (str.to_re "yy")))) (re.+ (re.union (re.+ (str.to_re "zz")) (re.+ (str.to_re "AAA")))))))) (re.* (re.union (re.union (re.* (re.union (re.* (re.union (str.to_re "BB") (str.to_re "C"))) (re.* (re.+ (str.to_re "D"))))) (re.* (re.+ (re.union (re.union (str.to_re "E") (str.to_re "F")) (re.union (str.to_re "G") (str.to_re "HH")))))) (re.union (re.union (re.union (re.+ (re.union (str.to_re "II") (str.to_re "JJ"))) (re.+ (re.union (str.to_re "K") (str.to_re "LL")))) (re.union (re.+ (re.+ (str.to_re "MMM"))) (re.+ (re.* (str.to_re "NN"))))) (re.union (re.+ (re.union (re.* (str.to_re "OOO")) (re.* (str.to_re "PP")))) (re.+ (re.* (re.+ (str.to_re "QQQ")))))))))))) (re.* (re.union (re.+ (re.* (re.union (re.+ (re.+ (re.* (re.* (re.* (re.union (str.to_re "RRR") (str.to_re "SS"))))))) (re.+ (re.union (re.+ (re.+ (re.union (re.+ (str.to_re "TTT")) (re.+ (str.to_re "UUU"))))) (re.+ (re.union (re.+ (re.+ (str.to_re "VV"))) (re.+ (re.+ (str.to_re "W")))))))))) (re.+ (re.+ (re.+ (re.* (re.+ (re.union (re.* (re.* (re.+ (str.to_re "XX")))) (re.* (re.* (re.* (str.to_re "Y")))))))))))))))
(assert (<= 15 (str.len var0)))
(check-sat)